p cnf 129 300
-1 61 117 124 -126 -127 0 
-2 89 124 -126 -127 0 
-3 125 -124 -126 -127 0 
-4 -5 124 -126 -127 0 
-4 -6 124 -126 -127 0 
-7 124 -126 -127 0 
-8 9 25 32 124 -126 -127 0 
-9 8 25 32 124 -126 -127 0 
-4 -10 -11 124 -126 -127 0 
-5 -10 124 -126 -127 0 
-12 14 124 -126 -127 0 
-10 124 -126 -127 0 
-13 124 -126 -127 0 
-13 -11 124 -126 -127 0 
-14 12 124 -126 -127 0 
-6 -10 124 -126 -127 0 
-4 -10 124 -126 -127 0 
-15 20 125 -124 -126 -127 0 
-16 76 124 -126 -127 0 
-17 33 56 77 85 98 124 -126 -127 0 
-18 105 118 125 -124 -126 -127 0 
-19 41 73 74 87 92 124 -126 -127 0 
-20 15 124 -126 -127 0 
-2 89 -21 55 81 -11 124 -126 -127 0 
-11 126 -124 -127 0 
-22 30 34 63 67 -23 35 66 82 84 106 114 124 -126 -127 0 
-17 33 56 77 85 98 -11 124 -126 -127 0 
-24 27 -11 124 -126 -127 0 
-25 8 9 32 124 -126 -127 0 
-26 124 -126 -127 0 
-27 24 -11 124 -126 -127 0 
-28 -29 -30 22 34 63 67 -23 35 66 82 84 106 114 124 -126 -127 0 
-31 65 79 90 99 120 125 -124 -126 -127 0 
-28 -15 20 125 -124 -126 -127 0 
-32 8 9 25 124 -126 -127 0 
-33 17 56 77 85 98 124 -126 -127 0 
-34 22 30 63 67 -33 17 56 77 85 98 124 -126 -127 0 
-35 23 66 82 84 106 114 -36 124 -126 -127 0 
-4 -33 17 56 77 85 98 124 -126 -127 0 
-28 -37 124 -126 -127 0 
-38 -39 124 -126 -127 0 
-7 -33 17 56 77 85 98 124 -126 -127 0 
-39 124 -126 -127 0 
-37 124 -126 -127 0 
-38 -40 124 -126 -127 0 
-41 19 73 74 87 92 124 -126 -127 0 
-40 124 -126 -127 0 
-38 -41 19 73 74 87 92 124 -126 -127 0 
-42 46 48 52 78 86 88 95 97 124 -126 -127 0 
-28 -43 -44 125 -124 -126 -127 0 
-45 -46 42 48 52 78 86 88 95 97 125 -124 -126 -127 0 
-47 83 124 -126 -127 0 
-48 42 46 52 78 86 88 95 97 124 -126 -127 0 
-49 124 -126 -127 0 
-50 125 -124 -126 -127 0 
-41 19 73 74 87 92 -33 17 56 77 85 98 124 -126 -127 0 
-51 124 -126 -127 0 
-44 125 -124 -126 -127 0 
-52 42 46 48 78 86 88 95 97 -33 17 56 77 85 98 124 -126 -127 0 
-38 -53 -54 124 -126 -127 0 
-54 -31 65 79 90 99 120 125 -124 -126 -127 0 
-33 17 56 77 85 98 -55 21 81 -11 124 -126 -127 0 
-56 17 33 77 85 98 -57 124 -126 -127 0 
-29 -54 -22 30 34 63 67 -23 35 66 82 84 106 114 124 -126 -127 0 
-34 22 30 63 67 124 -126 -127 0 
-58 71 107 124 -126 -127 0 
-33 17 56 77 85 98 -11 124 -126 -127 0 
-59 -60 -61 1 117 -62 124 -126 -127 0 
-29 -61 1 117 -62 124 -126 -127 0 
-28 -22 30 34 63 67 -23 35 66 82 84 106 114 124 -126 -127 0 
-63 22 30 34 67 124 -126 -127 0 
-64 124 -126 -127 0 
-65 31 79 90 99 120 124 -126 -127 0 
-66 23 35 82 84 106 114 -36 124 -126 -127 0 
-36 126 -124 -127 0 
-67 22 30 34 63 125 -124 -126 -127 0 
-35 23 66 82 84 106 114 -33 17 56 77 85 98 124 -126 -127 0 
-68 115 124 -126 -127 0 
-24 27 124 -126 -127 0 
-69 102 103 124 -126 -127 0 
-70 124 -126 -127 0 
-36 124 -126 -127 0 
-45 -41 19 73 74 87 92 124 -126 -127 0 
-45 -39 124 -126 -127 0 
-5 -33 17 56 77 85 98 124 -126 -127 0 
-71 58 107 -37 124 -126 -127 0 
-56 17 33 77 85 98 124 -126 -127 0 
-54 -37 124 -126 -127 0 
-28 -40 124 -126 -127 0 
-6 -33 17 56 77 85 98 124 -126 -127 0 
-54 -41 19 73 74 87 92 124 -126 -127 0 
-72 124 -126 -127 0 
-28 -73 19 41 74 87 92 124 -126 -127 0 
-4 124 -126 -127 0 
-47 83 -33 17 56 77 85 98 124 -126 -127 0 
-46 42 48 52 78 86 88 95 97 125 -124 -126 -127 0 
-43 127 -124 -126 0 
-74 19 41 73 87 92 127 -124 -126 0 
-75 127 -124 -126 0 
-76 16 -77 17 33 56 85 98 126 -124 -127 0 
-78 42 46 48 52 86 88 95 97 126 -124 -127 0 
-79 31 65 90 99 120 126 -124 -127 0 
-80 125 -124 -126 -127 0 
-81 21 55 -5 124 -126 -127 0 
-82 23 35 66 84 106 114 -83 47 126 -124 -127 0 
-84 23 35 66 82 106 114 125 -124 -126 -127 0 
-53 124 -126 -127 0 
-50 124 -126 -127 0 
-85 17 33 56 77 98 125 -124 -126 -127 0 
-43 124 -126 -127 0 
-3 124 -126 -127 0 
-86 42 46 48 52 78 88 95 97 126 -124 -127 0 
-87 19 41 73 74 92 126 -124 -127 0 
-88 42 46 48 52 78 86 95 97 126 -124 -127 0 
-89 2 -17 33 56 77 85 98 126 -124 -127 0 
-28 -6 -42 46 48 52 78 86 88 95 97 124 -126 -127 0 
-54 -6 -19 41 73 74 87 92 124 -126 -127 0 
-54 -90 31 65 79 99 120 -52 42 46 48 78 86 88 95 97 124 -126 -127 0 
-85 17 33 56 77 98 -3 125 -124 -126 -127 0 
-91 -11 124 -126 -127 0 
-92 19 41 73 74 87 124 -126 -127 0 
-93 127 -124 -126 0 
-6 127 -124 -126 0 
-40 -33 17 56 77 85 98 124 -126 -127 0 
-94 96 127 -124 -126 0 
-95 42 46 48 52 78 86 88 97 -33 17 56 77 85 98 124 -126 -127 0 
-96 94 127 -124 -126 0 
-74 19 41 73 87 92 -97 42 46 48 52 78 86 88 95 127 -124 -126 0 
-98 17 33 56 77 85 124 -126 -127 0 
-99 31 65 79 90 120 124 -126 -127 0 
-73 19 41 74 87 92 -100 124 -126 -127 0 
-56 17 33 77 85 98 -21 55 81 -101 -11 124 -126 -127 0 
-27 24 124 -126 -127 0 
-2 89 -21 55 81 124 -126 -127 0 
-31 65 79 90 99 120 124 -126 -127 0 
-85 17 33 56 77 98 124 -126 -127 0 
-11 128 129 0 
-102 69 103 124 -126 -127 0 
-103 69 102 124 -126 -127 0 
-24 27 -10 -11 124 -126 -127 0 
-11 124 -126 -127 0 
-66 23 35 82 84 106 114 -10 124 -126 -127 0 
-104 -2 89 124 -126 -127 0 
-105 18 118 -89 2 126 -124 -127 0 
-106 23 35 66 82 84 114 -107 58 71 124 -126 -127 0 
-38 -108 124 -126 -127 0 
-109 -110 124 -126 -127 0 
-89 2 126 -124 -127 0 
-111 -112 124 -126 -127 0 
-53 -24 27 125 -124 -126 -127 0 
-66 23 35 82 84 106 114 -21 55 81 -10 -11 124 -126 -127 0 
-27 24 -10 -11 124 -126 -127 0 
-21 55 81 -11 126 -124 -127 0 
-113 -11 124 -126 -127 0 
-114 23 35 66 82 84 106 -21 55 81 -11 124 -126 -127 0 
-5 -11 124 -126 -127 0 
-102 69 103 124 -126 -127 0 
-115 68 124 -126 -127 0 
-116 124 -126 -127 0 
-117 1 61 124 -126 -127 0 
-14 12 124 -126 -127 0 
-4 -11 124 -126 -127 0 
-118 18 105 124 -126 -127 0 
-119 124 -126 -127 0 
-114 23 35 66 82 84 106 124 -126 -127 0 
-120 31 65 79 90 99 126 -124 -127 0 
-121 -122 126 -124 -127 0 
-123 -10 -11 124 -126 -127 0 
-12 14 124 -126 -127 0 
-36 -11 124 -126 -127 0 
-27 24 -10 124 -126 -127 0 
1 7 113 0 
4 -31 78 0 
1 45 46 0 
26 -77 -84 0 
-77 82 -121 0 
-8 10 -36 0 
-39 41 119 0 
30 73 83 0 
-41 -98 99 0 
29 -59 63 0 
49 57 116 0 
4 71 -128 0 
6 -112 -118 0 
-2 -6 112 0 
48 -99 102 0 
44 -64 -86 0 
1 -103 111 0 
-41 64 111 0 
-37 76 91 0 
42 50 60 0 
-72 104 122 0 
-7 -57 81 0 
16 -45 54 0 
18 30 124 0 
-66 103 114 0 
-71 -96 -104 0 
-11 -67 -67 0 
31 -36 -83 0 
-8 -15 45 0 
40 -99 117 0 
2 -2 113 0 
75 93 103 0 
31 38 87 0 
21 -82 -86 0 
32 -65 75 0 
-35 97 121 0 
-5 83 -129 0 
-2 67 -112 0 
-36 90 94 0 
-72 74 -111 0 
-57 98 103 0 
-3 -47 -89 0 
-19 77 -128 0 
-18 -81 -113 0 
4 17 -23 0 
38 76 100 0 
-50 111 126 0 
2 40 -95 0 
93 101 104 0 
22 35 -63 0 
24 75 -80 0 
30 -32 -36 0 
24 -74 -115 0 
34 43 95 0 
16 73 90 0 
-3 50 125 0 
21 37 49 0 
-40 87 114 0 
71 82 95 0 
29 -77 101 0 
77 89 129 0 
-13 -90 -122 0 
32 52 89 0 
-31 -69 -111 0 
24 33 -52 0 
84 -104 115 0 
25 97 106 0 
-8 72 92 0 
-55 -75 80 0 
-15 34 -120 0 
56 -101 125 0 
-12 -27 -62 0 
-99 -103 -113 0 
42 -90 -112 0 
-13 15 92 0 
37 -82 87 0 
6 -36 41 0 
-56 95 120 0 
-10 -22 98 0 
25 35 67 0 
50 -88 120 0 
12 58 -128 0 
-30 57 110 0 
65 -109 113 0 
-38 -70 -81 0 
-33 92 100 0 
19 40 42 0 
-20 -65 -107 0 
33 -53 81 0 
91 100 123 0 
17 -29 -70 0 
-20 -58 -109 0 
-99 -117 -122 0 
34 120 123 0 
-36 96 119 0 
-59 122 -122 0 
70 92 94 0 
-23 -24 -37 0 
19 -26 -111 0 
79 -87 -100 0 
-12 -126 -129 0 
-19 85 -103 0 
-21 26 -66 0 
-68 -69 118 0 
27 62 85 0 
15 29 -117 0 
7 44 121 0 
-25 26 -65 0 
-62 86 -114 0 
38 77 84 0 
-64 67 -106 0 
9 87 107 0 
-55 70 74 0 
-54 88 -115 0 
-3 105 -118 0 
1 6 38 0 
-66 91 101 0 
15 57 -107 0 
22 25 32 0 
-53 94 -101 0 
-57 63 -87 0 
-26 26 -38 0 
-75 -79 128 0 
-79 -89 -113 0 
12 19 -77 0 
33 100 -123 0 
-77 -88 -124 0 
-89 94 122 0 
41 -90 -116 0 
